NAME : problems/30-tsp/instance-3.tsp
COMMENT : No Comment
TYPE : TSP
DIMENSION: 30
EDGE_WEIGHT_TYPE : EUC_2D
NODE_COORD_SECTION
1 9033 4244 
2 7848 1420 
3 8830 7874 
4 19 1156 
5 4409 5126 
6 1988 1399 
7 7184 4186 
8 9879 5825 
9 5277 3792 
10 4409 4317 
11 3630 8730 
12 5800 1213 
13 7694 3168 
14 207 2064 
15 5918 1880 
16 8801 6284 
17 8909 6640 
18 3184 2331 
19 6126 2665 
20 1020 9964 
21 842 4841 
22 2369 8442 
23 5273 408 
24 5870 6073 
25 5520 8797 
26 5721 5709 
27 5009 3477 
28 4816 2995 
29 6670 4962 
30 3931 323 
EOF
